32	0

0	3	2	3	4
10	3	5	8	9
4	4	5	7	8	9
1	4	5	7	8	9
1	1	6
8	2	10	11
10	2	10	11
6	2	10	11
7	2	10	11
3	1	12
2	2	12	14
3	1	13
6	2	15	19
10	2	15	19
5	1	16
3	2	17	18
4	2	20	21
8	4	22	23	24	26
9	2	20	21
8	4	22	23	24	26
3	4	22	23	24	26
3	2	25	27
5	2	25	27
3	2	25	27
6	2	28	30
10	2	28	30
10	2	29	30
5	1	29
6	1	31
6	1	31
9	1	32
0	0
